c Original Bench File <c499.bench>
c 
c $i 1 i_0
c $i 5 i_1
c $i 9 i_2
c $i 13 i_3
c $i 17 i_4
c $i 21 i_5
c $i 25 i_6
c $i 29 i_7
c $i 33 i_8
c $i 37 i_9
c $i 41 i_10
c $i 45 i_11
c $i 49 i_12
c $i 53 i_13
c $i 57 i_14
c $i 61 i_15
c $i 65 i_16
c $i 69 i_17
c $i 73 i_18
c $i 77 i_19
c $i 81 i_20
c $i 85 i_21
c $i 89 i_22
c $i 93 i_23
c $i 97 i_24
c $i 101 i_25
c $i 105 i_26
c $i 109 i_27
c $i 113 i_28
c $i 117 i_29
c $i 121 i_30
c $i 125 i_31
c $i 129 i_32
c $i 130 i_33
c $i 131 i_34
c $i 132 i_35
c $i 133 i_36
c $i 134 i_37
c $i 135 i_38
c $i 136 i_39
c $i 137 i_40
c $o 724 o_0
c $o 725 o_1
c $o 726 o_2
c $o 727 o_3
c $o 728 o_4
c $o 729 o_5
c $o 730 o_6
c $o 731 o_7
c $o 732 o_8
c $o 733 o_9
c $o 734 o_10
c $o 735 o_11
c $o 736 o_12
c $o 737 o_13
c $o 738 o_14
c $o 739 o_15
c $o 740 o_16
c $o 741 o_17
c $o 742 o_18
c $o 743 o_19
c $o 744 o_20
c $o 745 o_21
c $o 746 o_22
c $o 747 o_23
c $o 748 o_24
c $o 749 o_25
c $o 750 o_26
c $o 751 o_27
c $o 752 o_28
c $o 753 o_29
c $o 754 o_30
c $o 755 o_31
p cnf 755 714
1 5 -250 0
-1 5 250 0
1 -5 250 0
-1 -5 -250 0
9 13 -251 0
-9 13 251 0
9 -13 251 0
-9 -13 -251 0
17 21 -252 0
-17 21 252 0
17 -21 252 0
-17 -21 -252 0
25 29 -253 0
-25 29 253 0
25 -29 253 0
-25 -29 -253 0
33 37 -254 0
-33 37 254 0
33 -37 254 0
-33 -37 -254 0
41 45 -255 0
-41 45 255 0
41 -45 255 0
-41 -45 -255 0
49 53 -256 0
-49 53 256 0
49 -53 256 0
-49 -53 -256 0
57 61 -257 0
-57 61 257 0
57 -61 257 0
-57 -61 -257 0
65 69 -258 0
-65 69 258 0
65 -69 258 0
-65 -69 -258 0
73 77 -259 0
-73 77 259 0
73 -77 259 0
-73 -77 -259 0
81 85 -260 0
-81 85 260 0
81 -85 260 0
-81 -85 -260 0
89 93 -261 0
-89 93 261 0
89 -93 261 0
-89 -93 -261 0
97 101 -262 0
-97 101 262 0
97 -101 262 0
-97 -101 -262 0
105 109 -263 0
-105 109 263 0
105 -109 263 0
-105 -109 -263 0
113 117 -264 0
-113 117 264 0
113 -117 264 0
-113 -117 -264 0
121 125 -265 0
-121 125 265 0
121 -125 265 0
-121 -125 -265 0
129 -266 0
137 -266 0
-129 -137 266 0
130 -267 0
137 -267 0
-130 -137 267 0
131 -268 0
137 -268 0
-131 -137 268 0
132 -269 0
137 -269 0
-132 -137 269 0
133 -270 0
137 -270 0
-133 -137 270 0
134 -271 0
137 -271 0
-134 -137 271 0
135 -272 0
137 -272 0
-135 -137 272 0
136 -273 0
137 -273 0
-136 -137 273 0
1 17 -274 0
-1 17 274 0
1 -17 274 0
-1 -17 -274 0
33 49 -275 0
-33 49 275 0
33 -49 275 0
-33 -49 -275 0
5 21 -276 0
-5 21 276 0
5 -21 276 0
-5 -21 -276 0
37 53 -277 0
-37 53 277 0
37 -53 277 0
-37 -53 -277 0
9 25 -278 0
-9 25 278 0
9 -25 278 0
-9 -25 -278 0
41 57 -279 0
-41 57 279 0
41 -57 279 0
-41 -57 -279 0
13 29 -280 0
-13 29 280 0
13 -29 280 0
-13 -29 -280 0
45 61 -281 0
-45 61 281 0
45 -61 281 0
-45 -61 -281 0
65 81 -282 0
-65 81 282 0
65 -81 282 0
-65 -81 -282 0
97 113 -283 0
-97 113 283 0
97 -113 283 0
-97 -113 -283 0
69 85 -284 0
-69 85 284 0
69 -85 284 0
-69 -85 -284 0
101 117 -285 0
-101 117 285 0
101 -117 285 0
-101 -117 -285 0
73 89 -286 0
-73 89 286 0
73 -89 286 0
-73 -89 -286 0
105 121 -287 0
-105 121 287 0
105 -121 287 0
-105 -121 -287 0
77 93 -288 0
-77 93 288 0
77 -93 288 0
-77 -93 -288 0
109 125 -289 0
-109 125 289 0
109 -125 289 0
-109 -125 -289 0
250 251 -290 0
-250 251 290 0
250 -251 290 0
-250 -251 -290 0
252 253 -293 0
-252 253 293 0
252 -253 293 0
-252 -253 -293 0
254 255 -296 0
-254 255 296 0
254 -255 296 0
-254 -255 -296 0
256 257 -299 0
-256 257 299 0
256 -257 299 0
-256 -257 -299 0
258 259 -302 0
-258 259 302 0
258 -259 302 0
-258 -259 -302 0
260 261 -305 0
-260 261 305 0
260 -261 305 0
-260 -261 -305 0
262 263 -308 0
-262 263 308 0
262 -263 308 0
-262 -263 -308 0
264 265 -311 0
-264 265 311 0
264 -265 311 0
-264 -265 -311 0
274 275 -314 0
-274 275 314 0
274 -275 314 0
-274 -275 -314 0
276 277 -315 0
-276 277 315 0
276 -277 315 0
-276 -277 -315 0
278 279 -316 0
-278 279 316 0
278 -279 316 0
-278 -279 -316 0
280 281 -317 0
-280 281 317 0
280 -281 317 0
-280 -281 -317 0
282 283 -318 0
-282 283 318 0
282 -283 318 0
-282 -283 -318 0
284 285 -319 0
-284 285 319 0
284 -285 319 0
-284 -285 -319 0
286 287 -320 0
-286 287 320 0
286 -287 320 0
-286 -287 -320 0
288 289 -321 0
-288 289 321 0
288 -289 321 0
-288 -289 -321 0
290 293 -338 0
-290 293 338 0
290 -293 338 0
-290 -293 -338 0
296 299 -339 0
-296 299 339 0
296 -299 339 0
-296 -299 -339 0
290 296 -340 0
-290 296 340 0
290 -296 340 0
-290 -296 -340 0
293 299 -341 0
-293 299 341 0
293 -299 341 0
-293 -299 -341 0
302 305 -342 0
-302 305 342 0
302 -305 342 0
-302 -305 -342 0
308 311 -343 0
-308 311 343 0
308 -311 343 0
-308 -311 -343 0
302 308 -344 0
-302 308 344 0
302 -308 344 0
-302 -308 -344 0
305 311 -345 0
-305 311 345 0
305 -311 345 0
-305 -311 -345 0
266 342 -346 0
-266 342 346 0
266 -342 346 0
-266 -342 -346 0
267 343 -347 0
-267 343 347 0
267 -343 347 0
-267 -343 -347 0
268 344 -348 0
-268 344 348 0
268 -344 348 0
-268 -344 -348 0
269 345 -349 0
-269 345 349 0
269 -345 349 0
-269 -345 -349 0
270 338 -350 0
-270 338 350 0
270 -338 350 0
-270 -338 -350 0
271 339 -351 0
-271 339 351 0
271 -339 351 0
-271 -339 -351 0
272 340 -352 0
-272 340 352 0
272 -340 352 0
-272 -340 -352 0
273 341 -353 0
-273 341 353 0
273 -341 353 0
-273 -341 -353 0
314 346 -354 0
-314 346 354 0
314 -346 354 0
-314 -346 -354 0
315 347 -367 0
-315 347 367 0
315 -347 367 0
-315 -347 -367 0
316 348 -380 0
-316 348 380 0
316 -348 380 0
-316 -348 -380 0
317 349 -393 0
-317 349 393 0
317 -349 393 0
-317 -349 -393 0
318 350 -406 0
-318 350 406 0
318 -350 406 0
-318 -350 -406 0
319 351 -419 0
-319 351 419 0
319 -351 419 0
-319 -351 -419 0
320 352 -432 0
-320 352 432 0
320 -352 432 0
-320 -352 -432 0
321 353 -445 0
-321 353 445 0
321 -353 445 0
-321 -353 -445 0
354 554 0
-354 -554 0
367 555 0
-367 -555 0
380 556 0
-380 -556 0
354 557 0
-354 -557 0
367 558 0
-367 -558 0
393 559 0
-393 -559 0
354 560 0
-354 -560 0
380 561 0
-380 -561 0
393 562 0
-393 -562 0
367 563 0
-367 -563 0
380 564 0
-380 -564 0
393 565 0
-393 -565 0
419 566 0
-419 -566 0
445 567 0
-445 -567 0
419 568 0
-419 -568 0
432 569 0
-432 -569 0
406 570 0
-406 -570 0
445 571 0
-445 -571 0
406 572 0
-406 -572 0
432 573 0
-432 -573 0
406 574 0
-406 -574 0
419 575 0
-419 -575 0
432 576 0
-432 -576 0
406 577 0
-406 -577 0
419 578 0
-419 -578 0
445 579 0
-445 -579 0
406 580 0
-406 -580 0
432 581 0
-432 -581 0
445 582 0
-445 -582 0
419 583 0
-419 -583 0
432 584 0
-432 -584 0
445 585 0
-445 -585 0
367 586 0
-367 -586 0
393 587 0
-393 -587 0
367 588 0
-367 -588 0
380 589 0
-380 -589 0
354 590 0
-354 -590 0
393 591 0
-393 -591 0
354 592 0
-354 -592 0
380 593 0
-380 -593 0
554 -594 0
555 -594 0
556 -594 0
393 -594 0
-554 -555 -556 -393 594 0
557 -595 0
558 -595 0
380 -595 0
559 -595 0
-557 -558 -380 -559 595 0
560 -596 0
367 -596 0
561 -596 0
562 -596 0
-560 -367 -561 -562 596 0
354 -597 0
563 -597 0
564 -597 0
565 -597 0
-354 -563 -564 -565 597 0
574 -598 0
575 -598 0
576 -598 0
445 -598 0
-574 -575 -576 -445 598 0
577 -599 0
578 -599 0
432 -599 0
579 -599 0
-577 -578 -432 -579 599 0
580 -600 0
419 -600 0
581 -600 0
582 -600 0
-580 -419 -581 -582 600 0
406 -601 0
583 -601 0
584 -601 0
585 -601 0
-406 -583 -584 -585 601 0
-594 602 0
-595 602 0
-596 602 0
-597 602 0
594 595 596 597 -602 0
-598 607 0
-599 607 0
-600 607 0
-601 607 0
598 599 600 601 -607 0
406 -620 0
566 -620 0
432 -620 0
567 -620 0
602 -620 0
-406 -566 -432 -567 -602 620 0
406 -625 0
568 -625 0
569 -625 0
445 -625 0
602 -625 0
-406 -568 -569 -445 -602 625 0
570 -630 0
419 -630 0
432 -630 0
571 -630 0
602 -630 0
-570 -419 -432 -571 -602 630 0
572 -635 0
419 -635 0
573 -635 0
445 -635 0
602 -635 0
-572 -419 -573 -445 -602 635 0
354 -640 0
586 -640 0
380 -640 0
587 -640 0
607 -640 0
-354 -586 -380 -587 -607 640 0
354 -645 0
588 -645 0
589 -645 0
393 -645 0
607 -645 0
-354 -588 -589 -393 -607 645 0
590 -650 0
367 -650 0
380 -650 0
591 -650 0
607 -650 0
-590 -367 -380 -591 -607 650 0
592 -655 0
367 -655 0
593 -655 0
393 -655 0
607 -655 0
-592 -367 -593 -393 -607 655 0
354 -692 0
620 -692 0
-354 -620 692 0
367 -693 0
620 -693 0
-367 -620 693 0
380 -694 0
620 -694 0
-380 -620 694 0
393 -695 0
620 -695 0
-393 -620 695 0
354 -696 0
625 -696 0
-354 -625 696 0
367 -697 0
625 -697 0
-367 -625 697 0
380 -698 0
625 -698 0
-380 -625 698 0
393 -699 0
625 -699 0
-393 -625 699 0
354 -700 0
630 -700 0
-354 -630 700 0
367 -701 0
630 -701 0
-367 -630 701 0
380 -702 0
630 -702 0
-380 -630 702 0
393 -703 0
630 -703 0
-393 -630 703 0
354 -704 0
635 -704 0
-354 -635 704 0
367 -705 0
635 -705 0
-367 -635 705 0
380 -706 0
635 -706 0
-380 -635 706 0
393 -707 0
635 -707 0
-393 -635 707 0
406 -708 0
640 -708 0
-406 -640 708 0
419 -709 0
640 -709 0
-419 -640 709 0
432 -710 0
640 -710 0
-432 -640 710 0
445 -711 0
640 -711 0
-445 -640 711 0
406 -712 0
645 -712 0
-406 -645 712 0
419 -713 0
645 -713 0
-419 -645 713 0
432 -714 0
645 -714 0
-432 -645 714 0
445 -715 0
645 -715 0
-445 -645 715 0
406 -716 0
650 -716 0
-406 -650 716 0
419 -717 0
650 -717 0
-419 -650 717 0
432 -718 0
650 -718 0
-432 -650 718 0
445 -719 0
650 -719 0
-445 -650 719 0
406 -720 0
655 -720 0
-406 -655 720 0
419 -721 0
655 -721 0
-419 -655 721 0
432 -722 0
655 -722 0
-432 -655 722 0
445 -723 0
655 -723 0
-445 -655 723 0
1 692 -724 0
-1 692 724 0
1 -692 724 0
-1 -692 -724 0
5 693 -725 0
-5 693 725 0
5 -693 725 0
-5 -693 -725 0
9 694 -726 0
-9 694 726 0
9 -694 726 0
-9 -694 -726 0
13 695 -727 0
-13 695 727 0
13 -695 727 0
-13 -695 -727 0
17 696 -728 0
-17 696 728 0
17 -696 728 0
-17 -696 -728 0
21 697 -729 0
-21 697 729 0
21 -697 729 0
-21 -697 -729 0
25 698 -730 0
-25 698 730 0
25 -698 730 0
-25 -698 -730 0
29 699 -731 0
-29 699 731 0
29 -699 731 0
-29 -699 -731 0
33 700 -732 0
-33 700 732 0
33 -700 732 0
-33 -700 -732 0
37 701 -733 0
-37 701 733 0
37 -701 733 0
-37 -701 -733 0
41 702 -734 0
-41 702 734 0
41 -702 734 0
-41 -702 -734 0
45 703 -735 0
-45 703 735 0
45 -703 735 0
-45 -703 -735 0
49 704 -736 0
-49 704 736 0
49 -704 736 0
-49 -704 -736 0
53 705 -737 0
-53 705 737 0
53 -705 737 0
-53 -705 -737 0
57 706 -738 0
-57 706 738 0
57 -706 738 0
-57 -706 -738 0
61 707 -739 0
-61 707 739 0
61 -707 739 0
-61 -707 -739 0
65 708 -740 0
-65 708 740 0
65 -708 740 0
-65 -708 -740 0
69 709 -741 0
-69 709 741 0
69 -709 741 0
-69 -709 -741 0
73 710 -742 0
-73 710 742 0
73 -710 742 0
-73 -710 -742 0
77 711 -743 0
-77 711 743 0
77 -711 743 0
-77 -711 -743 0
81 712 -744 0
-81 712 744 0
81 -712 744 0
-81 -712 -744 0
85 713 -745 0
-85 713 745 0
85 -713 745 0
-85 -713 -745 0
89 714 -746 0
-89 714 746 0
89 -714 746 0
-89 -714 -746 0
93 715 -747 0
-93 715 747 0
93 -715 747 0
-93 -715 -747 0
97 716 -748 0
-97 716 748 0
97 -716 748 0
-97 -716 -748 0
101 717 -749 0
-101 717 749 0
101 -717 749 0
-101 -717 -749 0
105 718 -750 0
-105 718 750 0
105 -718 750 0
-105 -718 -750 0
109 719 -751 0
-109 719 751 0
109 -719 751 0
-109 -719 -751 0
113 720 -752 0
-113 720 752 0
113 -720 752 0
-113 -720 -752 0
117 721 -753 0
-117 721 753 0
117 -721 753 0
-117 -721 -753 0
121 722 -754 0
-121 722 754 0
121 -722 754 0
-121 -722 -754 0
125 723 -755 0
-125 723 755 0
125 -723 755 0
-125 -723 -755 0
